NAME : mtspf.pid3299.gtsp.241592056.tour
COMMENT : Length = 241592056
COMMENT : Found by LKH [Keld Helsgaun] Sat Mar  1 13:06:22 2025
TYPE : TOUR
DIMENSION : 135
TOUR_SECTION
1
80
81
82
83
37
38
39
36
33
34
35
32
51
48
49
50
84
85
86
87
11
92
93
94
95
119
116
117
118
132
133
134
135
53
54
55
52
6
24
25
26
27
130
131
128
129
59
56
57
58
10
104
105
106
107
3
15
21
22
23
20
8
103
100
101
102
74
75
72
73
91
88
89
90
13
127
124
125
126
46
47
44
45
69
70
71
68
18
19
16
17
14
79
76
77
78
28
29
30
31
60
61
62
63
120
121
122
123
5
96
97
98
99
2
110
111
108
109
115
112
113
114
40
41
42
43
65
66
67
64
4
7
12
9
-1
EOF
